param set_len = 16;
param target_sum = 3524790108;
param values := [1] 89238867 [2] 416008663 [3] 781945354 [4] 28504257 [5] 558371480 [6] 465926187 [7] 837506410 [8] 360572340 [9] 229051789 [10] 709030240 [11] 683333157 [12] 984261493 [13] 445314964 [14] 713175602 [15] 92424375 [16] 446241499 ;
